78551.0
114, 130, 215, 304, 523, 534, 562, 732, 749, 958, 977, 1143, 1403, 1611, 1617, 1680, 1805, 1890, 1964, 2140, 2222, 2238, 2268, 2294, 2405, 2409, 2504, 2508, 2516, 2673, 2814, 2854, 2985, 3175, 3222, 3272, 3333, 3393, 3405, 3431, 3458, 3496, 3501, 3504, 3700, 3737, 3795, 3860, 3896, 3952, 3992, 4143, 4177, 4349, 4496, 4648, 4721, 4764, 4911, 5066, 5086, 5148, 5260, 5274, 5308, 5364, 5407, 5675, 5689, 5714, 5835, 5882, 6020, 6089, 6139, 6186, 6265, 6279, 6288, 6307, 6310, 6331, 6418, 6475, 6488, 6597, 6644, 6775, 6918, 7006, 7019, 7064, 7068, 7163, 7327, 7344, 7444, 7540, 7570, 7596, 7630, 7701, 7892, 8061, 8067, 8367, 8386, 8479, 8522, 8557, 8645, 8668, 8959, 9379, 9453, 9559, 9603, 9606, 9670, 9767, 9815, 9856, 9905